10 
6 
10 
5 
9 
3 
7 
7 
5 
5 
7 
5 
8 
6 
8 
9 
8 
14 
4 
12 
4 
14 
10 
10 
13 
10 
4 
7 
7 
8 
7 
5 
8 
10 
12 
8 
7 
11 
7 
7 
9 
6 
5 
6 
5 
4 
11 
6 
12 
12 
8 
9 
13 
8 
7 
17 
3 
7 
14 
5 
14 
7 
8 
6 
9 
10 
11 
12 
9 
3 
6 
4 
5 
6 
12 
8 
6 
10 
7 
7 
11 
12 
11 
11 
5 
7 
12 
5 
4 
2 
9 
10 
5 
8 
8 
4 
4 
15 
8 
10 
